************************************************************************
file with basedata            : j60_26.bas
initial value random generator: 1741536109
************************************************************************
projects                      :  1
jobs (incl. supersource/sink ):  62
horizon                       :  330
RESOURCES
  - renewable                 :  4   R
  - nonrenewable              :  0   N
  - doubly constrained        :  0   D
************************************************************************
PROJECT INFORMATION:
pronr.  #jobs rel.date duedate tardcost  MPM-Time
    1     60      0       80       45       80
************************************************************************
PRECEDENCE RELATIONS:
jobnr.    #modes  #successors   successors
   1        1          3           2   3   4
   2        1          3           5  25  34
   3        1          3          18  20  42
   4        1          3           7  13  22
   5        1          3           6  33  40
   6        1          3           8   9  19
   7        1          1          30
   8        1          2          14  37
   9        1          2          10  32
  10        1          1          11
  11        1          3          12  17  24
  12        1          1          27
  13        1          3          16  26  50
  14        1          1          15
  15        1          3          39  43  48
  16        1          1          21
  17        1          1          44
  18        1          2          29  37
  19        1          1          39
  20        1          2          36  45
  21        1          2          23  55
  22        1          2          38  53
  23        1          3          28  30  46
  24        1          1          61
  25        1          1          35
  26        1          1          58
  27        1          1          31
  28        1          1          31
  29        1          2          47  61
  30        1          1          35
  31        1          1          36
  32        1          1          44
  33        1          1          47
  34        1          1          57
  35        1          2          54  59
  36        1          1          37
  37        1          1          56
  38        1          1          51
  39        1          1          57
  40        1          3          41  45  52
  41        1          1          51
  42        1          2          43  48
  43        1          1          49
  44        1          1          48
  45        1          1          54
  46        1          1          59
  47        1          2          54  58
  48        1          1          49
  49        1          1          61
  50        1          1          56
  51        1          1          58
  52        1          1          55
  53        1          1          60
  54        1          1          60
  55        1          1          56
  56        1          1          57
  57        1          1          60
  58        1          1          59
  59        1          1          62
  60        1          1          62
  61        1          1          62
  62        1          0        
************************************************************************
REQUESTS/DURATIONS:
jobnr. mode duration  R 1  R 2  R 3  R 4
------------------------------------------------------------------------
  1      1     0       0    0    0    0
  2      1     6       2    4    8    1
  3      1     2       6   10    0    0
  4      1     6       6    1    0    0
  5      1     9       5    8    4    8
  6      1     7       8    2    7    1
  7      1     3       4   10    3   10
  8      1     3       2    3    2    0
  9      1     3       5    0    1    3
 10      1     7       8    0   10   10
 11      1     1       0    0    0    3
 12      1     3       6    0    0    3
 13      1     6       8    9    5    1
 14      1     4       1    0    8    4
 15      1     6       0    4    9    1
 16      1     1       8    3    1    7
 17      1     6       5    9    1    9
 18      1     1       0    8    7    1
 19      1     4       1    1    0    8
 20      1     6       5    2    4    3
 21      1     8       2    4    0    0
 22      1     4       2    0    0    0
 23      1     4       2    4    0    8
 24      1     2       8    7    1    3
 25      1    10       8    0    0    8
 26      1    10       2    0    6    2
 27      1     6       7    7    6   10
 28      1     4       1    8    1    0
 29      1     1       2    4    6    8
 30      1    10       0    1    8    1
 31      1    10       2    0    2    8
 32      1     8       1    0    4    5
 33      1     5       2    0    7    2
 34      1     8       6    5    3    0
 35      1     3       6    0    2    9
 36      1     9       2    6   10   10
 37      1     2       0    6    6    0
 38      1     5       2    0    0    3
 39      1     5       2    5    5    0
 40      1     5       2    0    4    8
 41      1     5       0    2    9    3
 42      1     2       9    2    0    0
 43      1     6       3    6    8    0
 44      1     9       0    7    4    5
 45      1     3       4    0    0    4
 46      1     5       7    0    0    5
 47      1     8       1    4    0    4
 48      1     6       4    9    9    2
 49      1     3       0    7   10    8
 50      1     7       7    5    0    0
 51      1    10       3    0    0    1
 52      1     8       5    0    0    5
 53      1    10       5    2    1    7
 54      1     7       1    6    3    6
 55      1     5       3    3    6    2
 56      1     5      10    2    0    4
 57      1     4       0    4    5   10
 58      1     2       1    0    6    5
 59      1     5       0    1    7    6
 60      1     8       3   10   10    6
 61      1     9       6    1    1    5
 62      1     0       0    0    0    0
************************************************************************
RESOURCEAVAILABILITIES:
  R 1  R 2  R 3  R 4
   27   22   24   27
************************************************************************
